NAME /Users/henri/Research/solvers/instances/idol-instances/robust/collection/cbp_Subramanyam_et_al_2020/CapBud_N10_6/models/uncertain_technology_matrix/
ROWS
 N  OBJ
 L  capacity
 L  c_635
 L  c_636
 L  c_637
 L  c_638
 L  c_639
 L  c_640
 L  c_641
 L  c_642
 L  c_643
 L  c_644
COLUMNS
    MARKER    'MARKER'                 'INTORG'
    x_0        OBJ        -3.73449
    x_0        c_635      1
    x_0        capacity   0.746898
    x_1        OBJ        -7.71632
    x_1        c_636      1
    x_1        capacity   1.54326
    x_2        OBJ        -3.39843
    x_2        c_637      1
    x_2        capacity   0.679686
    x_3        OBJ        -2.18128
    x_3        c_638      1
    x_3        capacity   0.436256
    x_4        OBJ        -3.08819
    x_4        c_639      1
    x_4        capacity   0.617638
    x_5        OBJ        -5.06966
    x_5        c_640      1
    x_5        capacity   1.01393
    x_6        OBJ        -2.21781
    x_6        c_641      1
    x_6        capacity   0.443562
    x_7        OBJ        -7.30003
    x_7        c_642      1
    x_7        capacity   1.46001
    x_8        OBJ        -0.749214
    x_8        c_643      1
    x_8        capacity   0.149843
    x_9        OBJ        -5.53315
    x_9        c_644      1
    x_9        capacity   1.10663
    y_0        OBJ        -2.98759
    y_0        c_635      1
    y_0        capacity   0.746898
    y_1        OBJ        -6.17306
    y_1        c_636      1
    y_1        capacity   1.54326
    y_2        OBJ        -2.71874
    y_2        c_637      1
    y_2        capacity   0.679686
    y_3        OBJ        -1.74502
    y_3        c_638      1
    y_3        capacity   0.436256
    y_4        OBJ        -2.47055
    y_4        c_639      1
    y_4        capacity   0.617638
    y_5        OBJ        -4.05573
    y_5        c_640      1
    y_5        capacity   1.01393
    y_6        OBJ        -1.77425
    y_6        c_641      1
    y_6        capacity   0.443562
    y_7        OBJ        -5.84002
    y_7        c_642      1
    y_7        capacity   1.46001
    y_8        OBJ        -0.599372
    y_8        c_643      1
    y_8        capacity   0.149843
    y_9        OBJ        -4.42652
    y_9        c_644      1
    y_9        capacity   1.10663
    MARKER    'MARKER'                 'INTEND'
RHS
    RHS       capacity   20.4943
    RHS       c_635      1
    RHS       c_636      1
    RHS       c_637      1
    RHS       c_638      1
    RHS       c_639      1
    RHS       c_640      1
    RHS       c_641      1
    RHS       c_642      1
    RHS       c_643      1
    RHS       c_644      1
BOUNDS
 LI BND       x_0        0
 UI BND       x_0        1
 LI BND       x_1        0
 UI BND       x_1        1
 LI BND       x_2        0
 UI BND       x_2        1
 LI BND       x_3        0
 UI BND       x_3        1
 LI BND       x_4        0
 UI BND       x_4        1
 LI BND       x_5        0
 UI BND       x_5        1
 LI BND       x_6        0
 UI BND       x_6        1
 LI BND       x_7        0
 UI BND       x_7        1
 LI BND       x_8        0
 UI BND       x_8        1
 LI BND       x_9        0
 UI BND       x_9        1
 LI BND       y_0        0
 UI BND       y_0        1
 LI BND       y_1        0
 UI BND       y_1        1
 LI BND       y_2        0
 UI BND       y_2        1
 LI BND       y_3        0
 UI BND       y_3        1
 LI BND       y_4        0
 UI BND       y_4        1
 LI BND       y_5        0
 UI BND       y_5        1
 LI BND       y_6        0
 UI BND       y_6        1
 LI BND       y_7        0
 UI BND       y_7        1
 LI BND       y_8        0
 UI BND       y_8        1
 LI BND       y_9        0
 UI BND       y_9        1
ENDATA
